\* Problem: Unknown *\

Maximize
 obj: + 100000 r5_volGoal + 100000 r6_volGoal + 100000 r7_volGoal
 + 100000 r8_volGoal + 100000 r9_volGoal + 100000 r10_volGoal

Subject To
 r_0: + r5_volGoal + r5_z1_j4 <= 69.4804840190445
 r_1: + r6_volGoal + r6_z1_j4 <= 69.4804840190445
 r_2: - r6_z1_j4 - r5_z1_j4 + j4_r10 = 0
 r_3: + r5_volGoal <= 68.44
 r_4: + r6_volGoal <= 68.44
 r_5: + r7_volGoal <= 68.44
 r_6: + r8_volGoal <= 68.44
 r_7: + r9_volGoal <= 68.44
 r_8: + r10_volGoal <= 2.68

End
